nBots = 6;

minx = 10;
maxx = 50;
miny = 10;
maxy = 50;
minz = 10;
maxz = 50;

range =  [2, 2, 4, 6, 200, 5];

coordinates = [|10, 12, 12
|12, 14, 12
|16, 12, 12
|14, 14, 14
|50, 50, 50
|10, 10, 10|];
